
Gurobi 11.0.0 (linux64) logging started Tue Sep 17 04:02:21 2024

Set parameter LogFile to value "gurobi.log"
Set parameter InfUnbdInfo to value 1
Gurobi Optimizer version 11.0.0 build v11.0.0rc2 (linux64 - "Ubuntu 22.04.4 LTS")

CPU model: AMD EPYC 7V13 64-Core Processor, instruction set [SSE2|AVX|AVX2]
Thread count: 128 physical cores, 128 logical processors, using up to 32 threads

Optimize a model with 25 rows, 290 columns and 80 nonzeros
Model fingerprint: 0xac07942f
Model has 289 quadratic constraints
Variable types: 82 continuous, 208 integer (0 binary)
Coefficient statistics:
  Matrix range     [1e+00, 6e+04]
  QMatrix range    [1e+00, 6e+04]
  QLMatrix range   [1e+00, 6e+04]
  Objective range  [1e+00, 1e+00]
  Bounds range     [1e+00, 7e+11]
  RHS range        [1e+00, 7e+03]
  QRHS range       [1e+00, 2e+06]
Warning: Model contains large bounds
         Consider reformulating model or setting NumericFocus parameter
         to avoid numerical issues.
Using branch priorities (all 0).
Presolve added 9 rows and 0 columns
Presolve removed 0 rows and 36 columns
Presolve time: 0.00s
Presolved: 969 rows, 386 columns, 2515 nonzeros
Presolved model has 18 SOS constraint(s)
Presolved model has 174 bilinear constraint(s)
Warning: Model contains variables with very large bounds participating
         in product terms.
         Presolve was not able to compute smaller bounds for these variables.
         Consider bounding these variables or reformulating the model.


Solving non-convex MIQCP

Variable types: 116 continuous, 270 integer (102 binary)

Root relaxation: objective 7.255908e+03, 148 iterations, 0.00 seconds (0.00 work units)

    Nodes    |    Current Node    |     Objective Bounds      |     Work
 Expl Unexpl |  Obj  Depth IntInf | Incumbent    BestBd   Gap | It/Node Time

     0     0 7255.90796    0   36          - 7255.90796      -     -    0s
H    0     0                    429665.00000 7255.90796  98.3%     -    0s
H    0     0                    405665.00000 7255.90796  98.2%     -    0s
     0     0 7460.79112    0  123 405665.000 7460.79112  98.2%     -    0s
     0     0 7460.79116    0  126 405665.000 7460.79116  98.2%     -    0s
H    0     0                    323285.00000 7460.79116  97.7%     -    0s
     0     0 7482.02279    0   77 323285.000 7482.02279  97.7%     -    0s
H    0     0                    295325.00000 7486.63139  97.5%     -    0s
     0     0 7499.96472    0   59 295325.000 7499.96472  97.5%     -    0s
     0     0 7506.32071    0   64 295325.000 7506.32071  97.5%     -    0s
H    0     0                    268380.00000 7522.98488  97.2%     -    0s
H    0     0                    185148.00000 7522.98488  95.9%     -    0s
     0     0 7523.15944    0   90 185148.000 7523.15944  95.9%     -    0s
     0     0 7525.06369    0   79 185148.000 7525.06369  95.9%     -    0s
H    0     0                    156305.00000 7542.98500  95.2%     -    0s
     0     0 7542.98500    0   90 156305.000 7542.98500  95.2%     -    0s
     0     0 7545.63917    0   77 156305.000 7545.63917  95.2%     -    0s
     0     0 7702.99924    0   52 156305.000 7702.99924  95.1%     -    0s
H    0     0                    156087.00000 7703.41752  95.1%     -    0s
     0     0 7703.41752    0   74 156087.000 7703.41752  95.1%     -    0s
     0     0 7703.41752    0   82 156087.000 7703.41752  95.1%     -    0s
H    0     0                    78485.000000 7703.41752  90.2%     -    0s
     0     0 7703.41752    0   91 78485.0000 7703.41752  90.2%     -    0s
     0     0 7706.93866    0   94 78485.0000 7706.93866  90.2%     -    0s
     0     0 7709.46852    0   88 78485.0000 7709.46852  90.2%     -    0s
     0     0 7930.20000    0   56 78485.0000 7930.20000  89.9%     -    0s
     0     0 8132.44000    0   80 78485.0000 8132.44000  89.6%     -    0s
     0     0 8315.46269    0   84 78485.0000 8315.46269  89.4%     -    0s
     0     0 8353.88000    0   88 78485.0000 8353.88000  89.4%     -    0s
     0     0 8560.52736    0   83 78485.0000 8560.52736  89.1%     -    0s
     0     0 8736.06000    0   55 78485.0000 8736.06000  88.9%     -    0s
     0     0 8736.06000    0   47 78485.0000 8736.06000  88.9%     -    0s
     0     0 8736.06000    0   45 78485.0000 8736.06000  88.9%     -    0s
     0     0 8736.06000    0   74 78485.0000 8736.06000  88.9%     -    0s
     0     0 8736.06000    0   84 78485.0000 8736.06000  88.9%     -    0s
     0     0 8736.06000    0   78 78485.0000 8736.06000  88.9%     -    0s
     0     0 8736.06000    0   73 78485.0000 8736.06000  88.9%     -    0s
     0     0 8736.06000    0   77 78485.0000 8736.06000  88.9%     -    0s
     0     0 8736.06000    0   77 78485.0000 8736.06000  88.9%     -    0s
H    0     0                    54485.000000 8736.06000  84.0%     -    0s
     0     0 8736.06000    0   62 54485.0000 8736.06000  84.0%     -    0s
     0     0 8736.06000    0   47 54485.0000 8736.06000  84.0%     -    0s
     0     0 8799.70997    0   50 54485.0000 8799.70997  83.8%     -    0s
     0     0 8931.91952    0   49 54485.0000 8931.91952  83.6%     -    0s
H    0     0                    45910.000000 9740.80000  78.8%     -    0s
     0     0 9740.80000    0   46 45910.0000 9740.80000  78.8%     -    0s
     0     0 13411.0008    0   39 45910.0000 13411.0008  70.8%     -    1s
     0     0 13411.0008    0   33 45910.0000 13411.0008  70.8%     -    1s
H    0     0                    45765.000000 13411.0008  70.7%     -    1s
     0     0 13421.2125    0   69 45765.0000 13421.2125  70.7%     -    1s
H    0     0                    38885.000000 13426.2757  65.5%     -    1s
     0     0 13426.2757    0   52 38885.0000 13426.2757  65.5%     -    1s
     0     0 13426.2757    0   56 38885.0000 13426.2757  65.5%     -    1s
     0     0 13427.7164    0   56 38885.0000 13427.7164  65.5%     -    1s
     0     0 13432.6596    0   53 38885.0000 13432.6596  65.5%     -    1s
     0     0 13447.4499    0   53 38885.0000 13447.4499  65.4%     -    1s
     0     0 13447.4499    0   53 38885.0000 13447.4499  65.4%     -    1s
     0     0 13447.4499    0   44 38885.0000 13447.4499  65.4%     -    1s
     0     0 13447.4499    0   44 38885.0000 13447.4499  65.4%     -    1s
H    0     0                    34285.000000 13447.4499  60.8%     -    1s
     0     0 13447.4499    0   62 34285.0000 13447.4499  60.8%     -    1s
     0     0 13447.4499    0   49 34285.0000 13447.4499  60.8%     -    1s
     0     0 13850.9276    0   65 34285.0000 13850.9276  59.6%     -    1s
     0     0 15717.0000    0   65 34285.0000 15717.0000  54.2%     -    1s
     0     0 15907.0000    0   65 34285.0000 15907.0000  53.6%     -    1s
     0     0 16244.7778    0   52 34285.0000 16244.7778  52.6%     -    1s
     0     0 16527.0000    0   66 34285.0000 16527.0000  51.8%     -    1s
     0     0 16657.0000    0   66 34285.0000 16657.0000  51.4%     -    1s
     0     0 16767.0000    0   65 34285.0000 16767.0000  51.1%     -    1s
     0     0 17048.4157    0   65 34285.0000 17048.4157  50.3%     -    1s
     0     0 21079.6881    0   64 34285.0000 21079.6881  38.5%     -    1s
     0     2 21079.6881    0   64 34285.0000 21079.6881  38.5%     -    1s

Cutting planes:
  Gomory: 1
  Implied bound: 3
  MIR: 11
  RLT: 9
  Relax-and-lift: 1

Explored 143 nodes (2225 simplex iterations) in 1.88 seconds (0.17 work units)
Thread count was 32 (of 128 available processors)

Solution count 10: 34285 38885 45765 ... 156305

Optimal solution found (tolerance 1.00e-10)
Best objective 3.428500000000e+04, best bound 3.428500000000e+04, gap 0.0000%
